
50
127589

5148 4148
3878 2878
9448 8448
5438 4438
6288 5288
6513 5513
4390 3390
7395 6395
10001 9001
1720 720
6610 5610
3641 2641
7557 6557
7234 6234
1458 458
2130 1130
6284 5284
9587 8587
8977 7977
9239 8239
2371 1371
4506 3506
6770 5770
4665 3665
3307 2307
10221 9221
7353 6353
4981 3981
5761 4761
7996 6996
8593 7593
8796 7796
4345 3345
10677 9677
8631 7631
3706 2706
2720 1720
5302 4302
3606 2606
9776 8776
1094 94
9180 8180
2619 1619
9119 8119
5328 4328
2318 1318
10854 9854
5190 4190
10784 9784
4225 3225
